CPXPARAM_TimeLimit                               3600
CPXPARAM_Read_DataCheck                          1
Parallel mode: deterministic, using up to 8 threads for concurrent optimization.
Tried aggregator 1 time.
No LP presolve or aggregator reductions.
Presolve time = 0.00 sec. (2.35 ticks)

Iteration log . . .
Iteration:     1   Dual objective     =           928.000000
Perturbation started.
Iteration:   101   Dual objective     =           928.000000
Iteration:   222   Dual objective     =           928.016684
Iteration:   429   Dual objective     =           928.026500
Iteration:   654   Dual objective     =           928.026503
Iteration:   877   Dual objective     =           928.026506
Iteration:  1105   Dual objective     =           928.026508
Iteration:  1334   Dual objective     =           928.026509
Iteration:  1570   Dual objective     =           928.026510
Iteration:  1813   Dual objective     =           928.026511
Removing perturbation.

Dual simplex solved model.

